0 24 21 25 23 24 25 17 16 17 19
24 0 21 21 23 16 19 23 24 25 17
21 21 0 20 18 19 12 14 17 18 22
25 21 20 0 18 23 18 20 25 26 14
23 23 18 18 0 19 18 20 21 20 18
24 16 19 23 19 0 21 19 14 17 23
25 19 12 18 18 21 0 24 25 18 20
17 23 14 20 20 19 24 0 21 20 26
16 24 17 25 21 14 25 21 0 19 21
17 25 18 26 20 17 18 20 19 0 22
19 17 22 14 18 23 20 26 21 22 0
